nNurses = 115;
nHours = 35;
minHours = 7;
maxHours = 12;
maxConsec = 10;
maxPresence = 18;
demand = [36, 39, 34, 36, 34, 31, 26, 26, 22, 21, 19, 21, 16, 19, 21, 22, 22, 17, 13, 12, 12, 8, 11, 9, 10, 12, 14, 19, 15, 10, 9, 6, 11, 10, 6];
